p cnf 236 833
c p weight -23 1 0
c p weight 23 -1 0
c p weight 27 6.12323399573676603586882014729198302312846062338790031898128063403419218957424163818359375E-17 0
c p weight -27 1 0
c p weight 28 1 0
c p weight -28 1 0
c p weight -25 1 0
c p weight 25 -1 0
c p weight -29 1 0
c p weight 29 -1 0
c p weight -31 1 0
c p weight 31 -1 0
c p weight -32 1 0
c p weight 32 -1 0
c p weight 36 6.12323399573676603586882014729198302312846062338790031898128063403419218957424163818359375E-17 0
c p weight -36 1 0
c p weight 37 1 0
c p weight -37 1 0
c p weight -34 1 0
c p weight 34 -1 0
c p weight -38 1 0
c p weight 38 -1 0
c p weight -40 1 0
c p weight 40 -1 0
c p weight -41 1 0
c p weight 41 -1 0
c p weight 45 6.12323399573676603586882014729198302312846062338790031898128063403419218957424163818359375E-17 0
c p weight -45 1 0
c p weight 46 1 0
c p weight -46 1 0
c p weight -43 1 0
c p weight 43 -1 0
c p weight -47 1 0
c p weight 47 -1 0
c p weight -49 1 0
c p weight 49 -1 0
c p weight 53 6.12323399573676603586882014729198302312846062338790031898128063403419218957424163818359375E-17 0
c p weight -53 1 0
c p weight 54 1 0
c p weight -54 1 0
c p weight -51 1 0
c p weight 51 -1 0
c p weight -55 1 0
c p weight 55 -1 0
c p weight -57 1 0
c p weight 57 -1 0
c p weight -58 1 0
c p weight 58 -1 0
c p weight 62 6.12323399573676603586882014729198302312846062338790031898128063403419218957424163818359375E-17 0
c p weight -62 1 0
c p weight 63 1 0
c p weight -63 1 0
c p weight -60 1 0
c p weight 60 -1 0
c p weight -64 1 0
c p weight 64 -1 0
c p weight -66 1 0
c p weight 66 -1 0
c p weight 70 6.12323399573676603586882014729198302312846062338790031898128063403419218957424163818359375E-17 0
c p weight -70 1 0
c p weight 71 1 0
c p weight -71 1 0
c p weight -68 1 0
c p weight 68 -1 0
c p weight -72 1 0
c p weight 72 -1 0
c p weight -74 1 0
c p weight 74 -1 0
c p weight -75 1 0
c p weight 75 -1 0
c p weight 79 6.12323399573676603586882014729198302312846062338790031898128063403419218957424163818359375E-17 0
c p weight -79 1 0
c p weight 80 1 0
c p weight -80 1 0
c p weight -77 1 0
c p weight 77 -1 0
c p weight -81 1 0
c p weight 81 -1 0
c p weight -83 1 0
c p weight 83 -1 0
c p weight -84 1 0
c p weight 84 -1 0
c p weight 88 6.12323399573676603586882014729198302312846062338790031898128063403419218957424163818359375E-17 0
c p weight -88 1 0
c p weight 89 1 0
c p weight -89 1 0
c p weight -86 1 0
c p weight 86 -1 0
c p weight -90 1 0
c p weight 90 -1 0
c p weight -92 1 0
c p weight 92 -1 0
c p weight 96 6.12323399573676603586882014729198302312846062338790031898128063403419218957424163818359375E-17 0
c p weight -96 1 0
c p weight 97 1 0
c p weight -97 1 0
c p weight -94 1 0
c p weight 94 -1 0
c p weight -98 1 0
c p weight 98 -1 0
c p weight -100 1 0
c p weight 100 -1 0
c p weight -101 1 0
c p weight 101 -1 0
c p weight 105 6.12323399573676603586882014729198302312846062338790031898128063403419218957424163818359375E-17 0
c p weight -105 1 0
c p weight 106 1 0
c p weight -106 1 0
c p weight -103 1 0
c p weight 103 -1 0
c p weight -107 1 0
c p weight 107 -1 0
c p weight -109 1 0
c p weight 109 -1 0
c p weight -110 1 0
c p weight 110 -1 0
c p weight -111 1 0
c p weight 111 -1 0
c p weight 115 6.12323399573676603586882014729198302312846062338790031898128063403419218957424163818359375E-17 0
c p weight -115 1 0
c p weight 116 1 0
c p weight -116 1 0
c p weight -113 1 0
c p weight 113 -1 0
c p weight -117 1 0
c p weight 117 -1 0
c p weight -119 1 0
c p weight 119 -1 0
c p weight -122 1 0
c p weight 122 -1 0
c p weight -123 1 0
c p weight 123 -1 0
c p weight 127 6.12323399573676603586882014729198302312846062338790031898128063403419218957424163818359375E-17 0
c p weight -127 1 0
c p weight 128 1 0
c p weight -128 1 0
c p weight -125 1 0
c p weight 125 -1 0
c p weight -129 1 0
c p weight 129 -1 0
c p weight -131 1 0
c p weight 131 -1 0
c p weight -134 1 0
c p weight 134 -1 0
c p weight -135 1 0
c p weight 135 -1 0
c p weight 139 6.12323399573676603586882014729198302312846062338790031898128063403419218957424163818359375E-17 0
c p weight -139 1 0
c p weight 140 1 0
c p weight -140 1 0
c p weight -137 1 0
c p weight 137 -1 0
c p weight -141 1 0
c p weight 141 -1 0
c p weight -143 1 0
c p weight 143 -1 0
c p weight -146 1 0
c p weight 146 -1 0
c p weight 150 6.12323399573676603586882014729198302312846062338790031898128063403419218957424163818359375E-17 0
c p weight -150 1 0
c p weight 151 1 0
c p weight -151 1 0
c p weight -148 1 0
c p weight 148 -1 0
c p weight -152 1 0
c p weight 152 -1 0
c p weight -154 1 0
c p weight 154 -1 0
c p weight -157 1 0
c p weight 157 -1 0
c p weight -158 1 0
c p weight 158 -1 0
c p weight 162 6.12323399573676603586882014729198302312846062338790031898128063403419218957424163818359375E-17 0
c p weight -162 1 0
c p weight 163 1 0
c p weight -163 1 0
c p weight -160 1 0
c p weight 160 -1 0
c p weight -164 1 0
c p weight 164 -1 0
c p weight -166 1 0
c p weight 166 -1 0
c p weight -169 1 0
c p weight 169 -1 0
c p weight 173 6.12323399573676603586882014729198302312846062338790031898128063403419218957424163818359375E-17 0
c p weight -173 1 0
c p weight 174 1 0
c p weight -174 1 0
c p weight -171 1 0
c p weight 171 -1 0
c p weight -175 1 0
c p weight 175 -1 0
c p weight -177 1 0
c p weight 177 -1 0
c p weight -180 1 0
c p weight 180 -1 0
c p weight -181 1 0
c p weight 181 -1 0
c p weight 185 6.12323399573676603586882014729198302312846062338790031898128063403419218957424163818359375E-17 0
c p weight -185 1 0
c p weight 186 1 0
c p weight -186 1 0
c p weight -183 1 0
c p weight 183 -1 0
c p weight -187 1 0
c p weight 187 -1 0
c p weight -189 1 0
c p weight 189 -1 0
c p weight -192 1 0
c p weight 192 -1 0
c p weight -193 1 0
c p weight 193 -1 0
c p weight 197 6.12323399573676603586882014729198302312846062338790031898128063403419218957424163818359375E-17 0
c p weight -197 1 0
c p weight 198 1 0
c p weight -198 1 0
c p weight -195 1 0
c p weight 195 -1 0
c p weight -199 1 0
c p weight 199 -1 0
c p weight -201 1 0
c p weight 201 -1 0
c p weight -204 1 0
c p weight 204 -1 0
c p weight 208 6.12323399573676603586882014729198302312846062338790031898128063403419218957424163818359375E-17 0
c p weight -208 1 0
c p weight 209 1 0
c p weight -209 1 0
c p weight -206 1 0
c p weight 206 -1 0
c p weight -210 1 0
c p weight 210 -1 0
c p weight -212 1 0
c p weight 212 -1 0
c p weight -215 1 0
c p weight 215 -1 0
c p weight -216 1 0
c p weight 216 -1 0
c p weight 220 6.12323399573676603586882014729198302312846062338790031898128063403419218957424163818359375E-17 0
c p weight -220 1 0
c p weight 221 1 0
c p weight -221 1 0
c p weight -218 1 0
c p weight 218 -1 0
c p weight -222 1 0
c p weight 222 -1 0
c p weight -224 1 0
c p weight 224 -1 0
c p weight -227 1 0
c p weight 227 -1 0
c p weight -228 1 0
c p weight 228 -1 0
c p weight 232 6.12323399573676603586882014729198302312846062338790031898128063403419218957424163818359375E-17 0
c p weight -232 1 0
c p weight 233 1 0
c p weight -233 1 0
c p weight -230 1 0
c p weight 230 -1 0
c p weight -234 1 0
c p weight 234 -1 0
c p weight 236 0.5 0
c p weight -236 1 0
236 0
-21 0
-19 0
-17 0
-15 0
-13 0
-11 0
-9 0
-7 0
-5 0
-3 0
-1 0
-23 1 0
-23 2 0
23 -1 -2 0
24 1 -2 0
24 -1 2 0
-24 1 2 0
-24 -1 -2 0
-25 26 0
-25 24 0
-25 -1 0
25 -26 1 -24 0
26 -1 24 0
-26 1 24 0
-27 24 0
26 -27 -1 0
-26 -27 1 0
26 27 1 -24 0
-26 27 -1 -24 0
-28 24 0
26 -28 1 0
-26 -28 -1 0
26 28 -1 -24 0
-26 28 1 -24 0
-29 26 0
-29 24 0
29 -26 -24 0
30 26 -24 0
30 -26 24 0
-30 26 24 0
-30 -26 -24 0
31 -30 0
-31 30 0
-32 3 0
-32 4 0
32 -3 -4 0
33 3 -4 0
33 -3 4 0
-33 3 4 0
-33 -3 -4 0
-34 35 0
-34 33 0
-34 -3 0
34 -35 3 -33 0
35 -3 33 0
-35 3 33 0
-36 33 0
35 -36 -3 0
-35 -36 3 0
35 36 3 -33 0
-35 36 -3 -33 0
-37 33 0
35 -37 3 0
-35 -37 -3 0
35 37 -3 -33 0
-35 37 3 -33 0
-38 35 0
-38 33 0
38 -35 -33 0
39 35 -33 0
39 -35 33 0
-39 35 33 0
-39 -35 -33 0
40 -39 0
-40 39 0
-41 5 0
-41 6 0
41 -5 -6 0
42 5 -6 0
42 -5 6 0
-42 5 6 0
-42 -5 -6 0
-43 44 0
-43 42 0
-43 -5 0
43 -44 5 -42 0
44 -5 42 0
-44 5 42 0
-45 42 0
44 -45 -5 0
-44 -45 5 0
44 45 5 -42 0
-44 45 -5 -42 0
-46 42 0
44 -46 5 0
-44 -46 -5 0
44 46 -5 -42 0
-44 46 5 -42 0
-47 44 0
-47 42 0
47 -44 -42 0
48 44 -42 0
48 -44 42 0
-48 44 42 0
-48 -44 -42 0
-49 7 0
-49 8 0
49 -7 -8 0
50 7 -8 0
50 -7 8 0
-50 7 8 0
-50 -7 -8 0
-51 52 0
-51 50 0
-51 -7 0
51 -52 7 -50 0
52 -7 50 0
-52 7 50 0
-53 50 0
52 -53 -7 0
-52 -53 7 0
52 53 7 -50 0
-52 53 -7 -50 0
-54 50 0
52 -54 7 0
-52 -54 -7 0
52 54 -7 -50 0
-52 54 7 -50 0
-55 52 0
-55 50 0
55 -52 -50 0
56 52 -50 0
56 -52 50 0
-56 52 50 0
-56 -52 -50 0
57 -56 0
-57 56 0
-58 9 0
-58 10 0
58 -9 -10 0
59 9 -10 0
59 -9 10 0
-59 9 10 0
-59 -9 -10 0
-60 61 0
-60 59 0
-60 -9 0
60 -61 9 -59 0
61 -9 59 0
-61 9 59 0
-62 59 0
61 -62 -9 0
-61 -62 9 0
61 62 9 -59 0
-61 62 -9 -59 0
-63 59 0
61 -63 9 0
-61 -63 -9 0
61 63 -9 -59 0
-61 63 9 -59 0
-64 61 0
-64 59 0
64 -61 -59 0
65 61 -59 0
65 -61 59 0
-65 61 59 0
-65 -61 -59 0
-66 11 0
-66 12 0
66 -11 -12 0
67 11 -12 0
67 -11 12 0
-67 11 12 0
-67 -11 -12 0
-68 69 0
-68 67 0
-68 -11 0
68 -69 11 -67 0
69 -11 67 0
-69 11 67 0
-70 67 0
69 -70 -11 0
-69 -70 11 0
69 70 11 -67 0
-69 70 -11 -67 0
-71 67 0
69 -71 11 0
-69 -71 -11 0
69 71 -11 -67 0
-69 71 11 -67 0
-72 69 0
-72 67 0
72 -69 -67 0
73 69 -67 0
73 -69 67 0
-73 69 67 0
-73 -69 -67 0
74 -73 0
-74 73 0
-75 13 0
-75 14 0
75 -13 -14 0
76 13 -14 0
76 -13 14 0
-76 13 14 0
-76 -13 -14 0
-77 78 0
-77 76 0
-77 -13 0
77 -78 13 -76 0
78 -13 76 0
-78 13 76 0
-79 76 0
78 -79 -13 0
-78 -79 13 0
78 79 13 -76 0
-78 79 -13 -76 0
-80 76 0
78 -80 13 0
-78 -80 -13 0
78 80 -13 -76 0
-78 80 13 -76 0
-81 78 0
-81 76 0
81 -78 -76 0
82 78 -76 0
82 -78 76 0
-82 78 76 0
-82 -78 -76 0
83 -82 0
-83 82 0
-84 15 0
-84 16 0
84 -15 -16 0
85 15 -16 0
85 -15 16 0
-85 15 16 0
-85 -15 -16 0
-86 87 0
-86 85 0
-86 -15 0
86 -87 15 -85 0
87 -15 85 0
-87 15 85 0
-88 85 0
87 -88 -15 0
-87 -88 15 0
87 88 15 -85 0
-87 88 -15 -85 0
-89 85 0
87 -89 15 0
-87 -89 -15 0
87 89 -15 -85 0
-87 89 15 -85 0
-90 87 0
-90 85 0
90 -87 -85 0
91 87 -85 0
91 -87 85 0
-91 87 85 0
-91 -87 -85 0
-92 17 0
-92 18 0
92 -17 -18 0
93 17 -18 0
93 -17 18 0
-93 17 18 0
-93 -17 -18 0
-94 95 0
-94 93 0
-94 -17 0
94 -95 17 -93 0
95 -17 93 0
-95 17 93 0
-96 93 0
95 -96 -17 0
-95 -96 17 0
95 96 17 -93 0
-95 96 -17 -93 0
-97 93 0
95 -97 17 0
-95 -97 -17 0
95 97 -17 -93 0
-95 97 17 -93 0
-98 95 0
-98 93 0
98 -95 -93 0
99 95 -93 0
99 -95 93 0
-99 95 93 0
-99 -95 -93 0
100 -99 0
-100 99 0
-101 19 0
-101 20 0
101 -19 -20 0
102 19 -20 0
102 -19 20 0
-102 19 20 0
-102 -19 -20 0
-103 104 0
-103 102 0
-103 -19 0
103 -104 19 -102 0
104 -19 102 0
-104 19 102 0
-105 102 0
104 -105 -19 0
-104 -105 19 0
104 105 19 -102 0
-104 105 -19 -102 0
-106 102 0
104 -106 19 0
-104 -106 -19 0
104 106 -19 -102 0
-104 106 19 -102 0
-107 104 0
-107 102 0
107 -104 -102 0
108 104 -102 0
108 -104 102 0
-108 104 102 0
-108 -104 -102 0
109 -108 0
-109 108 0
110 -22 0
-110 22 0
-111 21 0
-111 22 0
111 -21 -22 0
112 21 -22 0
112 -21 22 0
-112 21 22 0
-112 -21 -22 0
-113 114 0
-113 112 0
-113 -21 0
113 -114 21 -112 0
114 -21 112 0
-114 21 112 0
-115 112 0
114 -115 -21 0
-114 -115 21 0
114 115 21 -112 0
-114 115 -21 -112 0
-116 112 0
114 -116 21 0
-114 -116 -21 0
114 116 -21 -112 0
-114 116 21 -112 0
-117 114 0
-117 112 0
117 -114 -112 0
118 114 -112 0
118 -114 112 0
-118 114 112 0
-118 -114 -112 0
-119 26 0
-119 118 0
-119 114 -30 0
-119 -114 30 0
119 -26 114 30 -118 0
119 -26 -114 -30 -118 0
121 26 -114 0
121 -26 114 0
-121 26 114 0
-121 -26 -114 0
120 30 -118 0
120 -30 118 0
-120 30 118 0
-120 -30 -118 0
122 -120 0
-122 120 0
-123 26 0
-123 120 0
123 -26 -120 0
124 26 -120 0
124 -26 120 0
-124 26 120 0
-124 -26 -120 0
-125 126 0
-125 124 0
-125 -26 0
125 -126 26 -124 0
126 -26 124 0
-126 26 124 0
-127 124 0
126 -127 -26 0
-126 -127 26 0
126 127 26 -124 0
-126 127 -26 -124 0
-128 124 0
126 -128 26 0
-126 -128 -26 0
126 128 -26 -124 0
-126 128 26 -124 0
-129 126 0
-129 124 0
129 -126 -124 0
130 126 -124 0
130 -126 124 0
-130 126 124 0
-130 -126 -124 0
-131 35 0
-131 118 0
-131 121 -39 0
-131 -121 39 0
131 -35 121 39 -118 0
131 -35 -121 -39 -118 0
133 35 -121 0
133 -35 121 0
-133 35 121 0
-133 -35 -121 0
132 39 -118 0
132 -39 118 0
-132 39 118 0
-132 -39 -118 0
134 -132 0
-134 132 0
-135 35 0
-135 132 0
135 -35 -132 0
136 35 -132 0
136 -35 132 0
-136 35 132 0
-136 -35 -132 0
-137 138 0
-137 136 0
-137 -35 0
137 -138 35 -136 0
138 -35 136 0
-138 35 136 0
-139 136 0
138 -139 -35 0
-138 -139 35 0
138 139 35 -136 0
-138 139 -35 -136 0
-140 136 0
138 -140 35 0
-138 -140 -35 0
138 140 -35 -136 0
-138 140 35 -136 0
-141 138 0
-141 136 0
141 -138 -136 0
142 138 -136 0
142 -138 136 0
-142 138 136 0
-142 -138 -136 0
-143 44 0
-143 118 0
-143 133 -48 0
-143 -133 48 0
143 -44 133 48 -118 0
143 -44 -133 -48 -118 0
145 44 -133 0
145 -44 133 0
-145 44 133 0
-145 -44 -133 0
144 48 -118 0
144 -48 118 0
-144 48 118 0
-144 -48 -118 0
-146 44 0
-146 144 0
146 -44 -144 0
147 44 -144 0
147 -44 144 0
-147 44 144 0
-147 -44 -144 0
-148 149 0
-148 147 0
-148 -44 0
148 -149 44 -147 0
149 -44 147 0
-149 44 147 0
-150 147 0
149 -150 -44 0
-149 -150 44 0
149 150 44 -147 0
-149 150 -44 -147 0
-151 147 0
149 -151 44 0
-149 -151 -44 0
149 151 -44 -147 0
-149 151 44 -147 0
-152 149 0
-152 147 0
152 -149 -147 0
153 149 -147 0
153 -149 147 0
-153 149 147 0
-153 -149 -147 0
-154 52 0
-154 118 0
-154 145 -56 0
-154 -145 56 0
154 -52 145 56 -118 0
154 -52 -145 -56 -118 0
156 52 -145 0
156 -52 145 0
-156 52 145 0
-156 -52 -145 0
155 56 -118 0
155 -56 118 0
-155 56 118 0
-155 -56 -118 0
157 -155 0
-157 155 0
-158 52 0
-158 155 0
158 -52 -155 0
159 52 -155 0
159 -52 155 0
-159 52 155 0
-159 -52 -155 0
-160 161 0
-160 159 0
-160 -52 0
160 -161 52 -159 0
161 -52 159 0
-161 52 159 0
-162 159 0
161 -162 -52 0
-161 -162 52 0
161 162 52 -159 0
-161 162 -52 -159 0
-163 159 0
161 -163 52 0
-161 -163 -52 0
161 163 -52 -159 0
-161 163 52 -159 0
-164 161 0
-164 159 0
164 -161 -159 0
165 161 -159 0
165 -161 159 0
-165 161 159 0
-165 -161 -159 0
-166 61 0
-166 118 0
-166 156 -65 0
-166 -156 65 0
166 -61 156 65 -118 0
166 -61 -156 -65 -118 0
168 61 -156 0
168 -61 156 0
-168 61 156 0
-168 -61 -156 0
167 65 -118 0
167 -65 118 0
-167 65 118 0
-167 -65 -118 0
-169 61 0
-169 167 0
169 -61 -167 0
170 61 -167 0
170 -61 167 0
-170 61 167 0
-170 -61 -167 0
-171 172 0
-171 170 0
-171 -61 0
171 -172 61 -170 0
172 -61 170 0
-172 61 170 0
-173 170 0
172 -173 -61 0
-172 -173 61 0
172 173 61 -170 0
-172 173 -61 -170 0
-174 170 0
172 -174 61 0
-172 -174 -61 0
172 174 -61 -170 0
-172 174 61 -170 0
-175 172 0
-175 170 0
175 -172 -170 0
176 172 -170 0
176 -172 170 0
-176 172 170 0
-176 -172 -170 0
-177 69 0
-177 118 0
-177 168 -73 0
-177 -168 73 0
177 -69 168 73 -118 0
177 -69 -168 -73 -118 0
179 69 -168 0
179 -69 168 0
-179 69 168 0
-179 -69 -168 0
178 73 -118 0
178 -73 118 0
-178 73 118 0
-178 -73 -118 0
180 -178 0
-180 178 0
-181 69 0
-181 178 0
181 -69 -178 0
182 69 -178 0
182 -69 178 0
-182 69 178 0
-182 -69 -178 0
-183 184 0
-183 182 0
-183 -69 0
183 -184 69 -182 0
184 -69 182 0
-184 69 182 0
-185 182 0
184 -185 -69 0
-184 -185 69 0
184 185 69 -182 0
-184 185 -69 -182 0
-186 182 0
184 -186 69 0
-184 -186 -69 0
184 186 -69 -182 0
-184 186 69 -182 0
-187 184 0
-187 182 0
187 -184 -182 0
188 184 -182 0
188 -184 182 0
-188 184 182 0
-188 -184 -182 0
-189 78 0
-189 118 0
-189 179 -82 0
-189 -179 82 0
189 -78 179 82 -118 0
189 -78 -179 -82 -118 0
191 78 -179 0
191 -78 179 0
-191 78 179 0
-191 -78 -179 0
190 82 -118 0
190 -82 118 0
-190 82 118 0
-190 -82 -118 0
192 -190 0
-192 190 0
-193 78 0
-193 190 0
193 -78 -190 0
194 78 -190 0
194 -78 190 0
-194 78 190 0
-194 -78 -190 0
-195 196 0
-195 194 0
-195 -78 0
195 -196 78 -194 0
196 -78 194 0
-196 78 194 0
-197 194 0
196 -197 -78 0
-196 -197 78 0
196 197 78 -194 0
-196 197 -78 -194 0
-198 194 0
196 -198 78 0
-196 -198 -78 0
196 198 -78 -194 0
-196 198 78 -194 0
-199 196 0
-199 194 0
199 -196 -194 0
200 196 -194 0
200 -196 194 0
-200 196 194 0
-200 -196 -194 0
-201 87 0
-201 118 0
-201 191 -91 0
-201 -191 91 0
201 -87 191 91 -118 0
201 -87 -191 -91 -118 0
203 87 -191 0
203 -87 191 0
-203 87 191 0
-203 -87 -191 0
202 91 -118 0
202 -91 118 0
-202 91 118 0
-202 -91 -118 0
-204 87 0
-204 202 0
204 -87 -202 0
205 87 -202 0
205 -87 202 0
-205 87 202 0
-205 -87 -202 0
-206 207 0
-206 205 0
-206 -87 0
206 -207 87 -205 0
207 -87 205 0
-207 87 205 0
-208 205 0
207 -208 -87 0
-207 -208 87 0
207 208 87 -205 0
-207 208 -87 -205 0
-209 205 0
207 -209 87 0
-207 -209 -87 0
207 209 -87 -205 0
-207 209 87 -205 0
-210 207 0
-210 205 0
210 -207 -205 0
211 207 -205 0
211 -207 205 0
-211 207 205 0
-211 -207 -205 0
-212 95 0
-212 118 0
-212 203 -99 0
-212 -203 99 0
212 -95 203 99 -118 0
212 -95 -203 -99 -118 0
214 95 -203 0
214 -95 203 0
-214 95 203 0
-214 -95 -203 0
213 99 -118 0
213 -99 118 0
-213 99 118 0
-213 -99 -118 0
215 -213 0
-215 213 0
-216 95 0
-216 213 0
216 -95 -213 0
217 95 -213 0
217 -95 213 0
-217 95 213 0
-217 -95 -213 0
-218 219 0
-218 217 0
-218 -95 0
218 -219 95 -217 0
219 -95 217 0
-219 95 217 0
-220 217 0
219 -220 -95 0
-219 -220 95 0
219 220 95 -217 0
-219 220 -95 -217 0
-221 217 0
219 -221 95 0
-219 -221 -95 0
219 221 -95 -217 0
-219 221 95 -217 0
-222 219 0
-222 217 0
222 -219 -217 0
223 219 -217 0
223 -219 217 0
-223 219 217 0
-223 -219 -217 0
-224 104 0
-224 118 0
-224 214 -108 0
-224 -214 108 0
224 -104 214 108 -118 0
224 -104 -214 -108 -118 0
226 104 -214 0
226 -104 214 0
-226 104 214 0
-226 -104 -214 0
225 108 -118 0
225 -108 118 0
-225 108 118 0
-225 -108 -118 0
227 -225 0
-227 225 0
-228 104 0
-228 225 0
228 -104 -225 0
229 104 -225 0
229 -104 225 0
-229 104 225 0
-229 -104 -225 0
-230 231 0
-230 229 0
-230 -104 0
230 -231 104 -229 0
231 -104 229 0
-231 104 229 0
-232 229 0
231 -232 -104 0
-231 -232 104 0
231 232 104 -229 0
-231 232 -104 -229 0
-233 229 0
231 -233 104 0
-231 -233 -104 0
231 233 -104 -229 0
-231 233 104 -229 0
-234 231 0
-234 229 0
234 -231 -229 0
235 231 -229 0
235 -231 229 0
-235 231 229 0
-235 -231 -229 0
-126 0
-138 0
-142 0
-149 0
-153 0
-161 0
-165 0
-172 0
-176 0
-184 0
-188 0
-196 0
-200 0
-207 0
-211 0
-219 0
-223 0
-231 0
-235 0
-226 0
-118 0
